7
0 1 C3H3N
C                     0.832477260513    -0.181683021469     0.000000000000
C                     0.832477260513    -1.501817073266     0.000000000000
C                    -0.387724013663     0.588360954225     0.000000000000
H                     1.743223870504     0.387434165011     0.000000000000
H                    -0.078578814340    -2.070695011697     0.000000000000
H                     1.756091353506    -2.049723538457     0.000000000000
N                    -1.340724891174     1.207153857006     0.000000000000
