11
0 1 C5H5N
C                    -0.300590664628     1.877980430412    -1.894764584886
C                    -0.300590664628     1.877980430412    -0.572938387521
C                    -0.300590664628     0.668582894365     0.268259668551
C                     0.366032555781    -0.444350571502    -0.010129349855
H                    -0.297651165487     2.797419808584    -2.450948989947
H                    -0.323515829024     0.967201485954    -2.466167665759
H                    -0.331634080272     2.814754174459    -0.041979462410
H                     0.994501697232    -0.530961967188    -0.876447741647
H                    -0.875592510577     0.715770806163     1.177534597326
C                     0.301294417537    -1.602765492758     0.842275567362
N                     0.260925377148    -2.524177659001     1.506956498590
