14
0 1 C5H8O
C                    -0.557224021831     1.930240167187    -1.831278631184
C                    -0.557224021831     1.930240167187    -0.508420282198
C                    -0.557224021831     0.737414124697     0.356252999687
C                     0.149271173988    -0.349113447373     0.100286326037
H                    -0.520245371863     2.848289051013    -2.389938076979
H                    -0.606776548526     1.018990415692    -2.401159827455
H                    -0.561977021592     2.877814454014     0.007318542475
H                     0.809659326055    -0.413575348209    -0.749464876650
H                    -1.150902315490     0.763721818046     1.254166941541
O                     0.077315872353    -1.454257809228     0.867905978214
C                     1.211677360636    -2.275862959119     0.865673745282
H                     0.977215957409    -3.139163571346     1.470464997606
H                     2.069373163312    -1.763621505672     1.290242278624
H                     1.456325659375    -2.603525811145    -0.140898063747
