10
0 1 C3H6O
C                     0.547439789851    -0.442515521789     0.000000000000
C                     0.547439789851    -1.758390663918     0.000000000000
O                    -0.585253912698     0.287966113236     0.000000000000
H                     1.463653926054     0.125121290444     0.000000000000
H                    -0.368855422489    -2.318853903104     0.000000000000
H                     1.476158129088    -2.295738691649     0.000000000000
C                    -0.428698981890     1.678486173613     0.000000000000
H                    -1.420081626511     2.106310697925     0.000000000000
H                     0.102715522957     2.016647501070    -0.884751719390
H                     0.102715522957     2.016647501070     0.884751719390
