10

 Ar        0.664819        3.731340        0.715806
 Ar        0.092341        4.092723        3.099490
 Ar        3.745483        0.714609        0.011727
 Ar        2.747063        3.387872       -1.196074
 Ar        0.127705        6.527148        0.136846
 Ar        0.989573        7.068073        2.407327
 Ar        6.264289        2.278696       -0.087440
 Ar        3.272516        5.705384        0.635241
 Ar        2.244844        1.678097        1.221022
 Ar        0.559448        0.606613        0.056231
